letting n_nurses=25
letting n_days=7
letting n_shift_types=4
letting max_covers=10
letting t_covers=87
letting covers=[5,8,0,0,10,3,2,0,9,0,7,0,1,6,2,0,6,9,0,0,7,1,2,0,2,1,6,0]
letting prefes=[3,1,4,1,1,1,2,1,1,1,2,3,3,1,4,1,3,1,4,1,1,1,2,1,1,1,2,1,1,1,4,2,1,2,4,2,1,3,1,3,1,1,4,2,1,1,4,2,1,2,4,2,1,2,4,2,1,4,1,4,1,4,2,4,3,1,1,3,1,4,1,4,1,4,1,4,1,4,2,4,1,4,2,4,1,2,1,1,4,1,4,1,1,3,4,4,1,2,1,1,1,2,1,1,4,1,4,1,4,1,4,1,3,1,1,4,4,2,1,4,4,2,4,3,3,1,1,4,3,1,1,4,4,2,1,4,4,2,1,4,1,1,1,3,3,2,4,3,3,3,4,3,1,1,1,3,1,1,1,3,3,2,4,3,3,2,4,3,1,1,4,4,1,2,1,4,1,1,4,1,1,1,4,4,1,1,4,4,1,2,1,4,1,2,1,4,1,1,4,4,1,2,4,4,3,1,1,4,1,1,4,4,1,1,4,4,1,2,4,4,1,2,4,4,3,4,4,1,4,1,1,1,1,2,4,1,3,4,4,1,3,4,4,1,4,1,1,1,4,1,1,1,3,1,4,4,2,2,4,4,1,1,4,3,3,1,4,4,3,1,4,4,2,2,4,4,2,2,4,4,1,2,1,1,4,2,2,1,3,3,1,1,1,2,1,1,1,2,1,1,4,2,2,1,4,2,2,1,3,1,4,4,4,1,4,4,1,1,2,3,3,1,4,4,3,1,4,4,4,1,4,4,4,1,4,4,1,1,1,2,4,1,1,2,3,3,1,1,1,1,1,2,1,1,1,2,4,1,1,2,4,1,1,2,2,1,1,1,4,4,1,1,1,1,1,1,2,1,1,1,2,1,1,1,4,4,1,1,4,4,1,1,3,3,2,1,1,2,4,1,3,1,1,1,3,3,2,1,3,3,2,1,1,2,4,1,1,2,4,1,1,2,2,4,3,1,1,4,1,3,4,3,1,2,2,4,1,2,2,4,3,1,1,4,3,1,1,4,1,1,1,1,1,1,1,1,1,1,1,1,1,1,1,1,1,1,1,1,1,1,1,1,1,1,1,1,3,1,4,1,1,1,1,1,3,3,4,3,3,1,4,1,3,1,4,1,1,1,1,1,1,1,1,1,1,1,3,4,4,2,1,4,1,1,4,3,1,1,3,4,1,1,3,4,4,2,1,4,4,2,1,4,3,3,1,4,1,2,4,4,4,3,3,1,3,3,1,4,3,3,1,4,1,2,4,4,1,2,4,4,4,2,4,4,1,1,1,4,1,1,4,4,4,2,4,4,4,2,4,4,1,1,1,4,1,1,1,4,3,1,4,4,1,1,1,4,4,1,1,3,3,1,4,4,3,1,4,4,1,1,1,4,1,1,1,4,2,1,4,1,1,2,1,1,1,3,1,1,2,1,4,1,2,1,4,1,1,2,1,1,1,2,1,1,1,1,1,4,1,2,4,4,3,2,4,1,1,1,1,4,1,1,1,4,1,2,4,4,1,2,4,4,3,3,4,1,4,3,1,1,3,1,4,1,3,3,4,1,3,3,4,1,4,3,1,1,4,3,1,1]
letting ub =  254
